logs/miss/feas/miss-06-30-2.lp
\ LP format - for model browsing. Use MPS format to capture full model detail.
Minimize
  p0 + p1 + p2 + p3 + p4 + p5
Subject To
 R0: x0,1_7 + x0,2_7 + x0,3_7 + x0,4_7 + x0,5_7 + x1,2_7 + x1,3_7 + x1,4_7
   + x1,5_7 + x2,3_7 + x2,4_7 + x2,5_7 + x3,4_7 + x3,5_7 + x4,5_7 = 1
 R1: x0,1_15 + x0,2_15 + x0,3_15 + x0,4_15 + x0,5_15 + x1,2_15 + x1,3_15
   + x1,4_15 + x1,5_15 + x2,3_15 + x2,4_15 + x2,5_15 + x3,4_15 + x3,5_15
   + x4,5_15 = 1
 R2: x0,1_18 + x0,2_18 + x0,3_18 + x0,4_18 + x0,5_18 + x1,2_18 + x1,3_18
   + x1,4_18 + x1,5_18 + x2,3_18 + x2,4_18 + x2,5_18 + x3,4_18 + x3,5_18
   + x4,5_18 = 1
 R3: x0,1_22 + x0,2_22 + x0,3_22 + x0,4_22 + x0,5_22 + x1,2_22 + x1,3_22
   + x1,4_22 + x1,5_22 + x2,3_22 + x2,4_22 + x2,5_22 + x3,4_22 + x3,5_22
   + x4,5_22 = 1
 R4: x0,1_26 + x0,2_26 + x0,3_26 + x0,4_26 + x0,5_26 + x1,2_26 + x1,3_26
   + x1,4_26 + x1,5_26 + x2,3_26 + x2,4_26 + x2,5_26 + x3,4_26 + x3,5_26
   + x4,5_26 = 1
 R5: x0,1_35 + x0,2_35 + x0,3_35 + x0,4_35 + x0,5_35 + x1,2_35 + x1,3_35
   + x1,4_35 + x1,5_35 + x2,3_35 + x2,4_35 + x2,5_35 + x3,4_35 + x3,5_35
   + x4,5_35 = 1
 R6: x0,1_37 + x0,2_37 + x0,3_37 + x0,4_37 + x0,5_37 + x1,2_37 + x1,3_37
   + x1,4_37 + x1,5_37 + x2,3_37 + x2,4_37 + x2,5_37 + x3,4_37 + x3,5_37
   + x4,5_37 = 1
 R7: x0,1_43 + x0,2_43 + x0,3_43 + x0,4_43 + x0,5_43 + x1,2_43 + x1,3_43
   + x1,4_43 + x1,5_43 + x2,3_43 + x2,4_43 + x2,5_43 + x3,4_43 + x3,5_43
   + x4,5_43 = 1
 R8: x0,1_61 + x0,2_61 + x0,3_61 + x0,4_61 + x0,5_61 + x1,2_61 + x1,3_61
   + x1,4_61 + x1,5_61 + x2,3_61 + x2,4_61 + x2,5_61 + x3,4_61 + x3,5_61
   + x4,5_61 = 1
 R9: x0,1_7 + x0,1_15 + x0,1_18 + x0,1_22 + x0,1_26 + x0,1_35 + x0,1_37
   + x0,1_43 + x0,1_61 <= 1
 R10: x0,2_7 + x0,2_15 + x0,2_18 + x0,2_22 + x0,2_26 + x0,2_35 + x0,2_37
   + x0,2_43 + x0,2_61 <= 1
 R11: x0,3_7 + x0,3_15 + x0,3_18 + x0,3_22 + x0,3_26 + x0,3_35 + x0,3_37
   + x0,3_43 + x0,3_61 <= 1
 R12: x0,4_7 + x0,4_15 + x0,4_18 + x0,4_22 + x0,4_26 + x0,4_35 + x0,4_37
   + x0,4_43 + x0,4_61 <= 1
 R13: x0,5_7 + x0,5_15 + x0,5_18 + x0,5_22 + x0,5_26 + x0,5_35 + x0,5_37
   + x0,5_43 + x0,5_61 <= 1
 R14: x1,2_7 + x1,2_15 + x1,2_18 + x1,2_22 + x1,2_26 + x1,2_35 + x1,2_37
   + x1,2_43 + x1,2_61 <= 1
 R15: x1,3_7 + x1,3_15 + x1,3_18 + x1,3_22 + x1,3_26 + x1,3_35 + x1,3_37
   + x1,3_43 + x1,3_61 <= 1
 R16: x1,4_7 + x1,4_15 + x1,4_18 + x1,4_22 + x1,4_26 + x1,4_35 + x1,4_37
   + x1,4_43 + x1,4_61 <= 1
 R17: x1,5_7 + x1,5_15 + x1,5_18 + x1,5_22 + x1,5_26 + x1,5_35 + x1,5_37
   + x1,5_43 + x1,5_61 <= 1
 R18: x2,3_7 + x2,3_15 + x2,3_18 + x2,3_22 + x2,3_26 + x2,3_35 + x2,3_37
   + x2,3_43 + x2,3_61 <= 1
 R19: x2,4_7 + x2,4_15 + x2,4_18 + x2,4_22 + x2,4_26 + x2,4_35 + x2,4_37
   + x2,4_43 + x2,4_61 <= 1
 R20: x2,5_7 + x2,5_15 + x2,5_18 + x2,5_22 + x2,5_26 + x2,5_35 + x2,5_37
   + x2,5_43 + x2,5_61 <= 1
 R21: x3,4_7 + x3,4_15 + x3,4_18 + x3,4_22 + x3,4_26 + x3,4_35 + x3,4_37
   + x3,4_43 + x3,4_61 <= 1
 R22: x3,5_7 + x3,5_15 + x3,5_18 + x3,5_22 + x3,5_26 + x3,5_35 + x3,5_37
   + x3,5_43 + x3,5_61 <= 1
 R23: x4,5_7 + x4,5_15 + x4,5_18 + x4,5_22 + x4,5_26 + x4,5_35 + x4,5_37
   + x4,5_43 + x4,5_61 <= 1
 R24: p0 - p1 <= -1
 R25: - 7 x0,1_7 - p0 + p1 >= 0
 R26: 264 x0,1_7 - p0 + p1 <= 271
 R27: - 15 x0,1_15 - p0 + p1 >= 0
 R28: 264 x0,1_15 - p0 + p1 <= 279
 R29: - 18 x0,1_18 - p0 + p1 >= 0
 R30: 264 x0,1_18 - p0 + p1 <= 282
 R31: - 22 x0,1_22 - p0 + p1 >= 0
 R32: 264 x0,1_22 - p0 + p1 <= 286
 R33: - 26 x0,1_26 - p0 + p1 >= 0
 R34: 264 x0,1_26 - p0 + p1 <= 290
 R35: - 35 x0,1_35 - p0 + p1 >= 0
 R36: 264 x0,1_35 - p0 + p1 <= 299
 R37: - 37 x0,1_37 - p0 + p1 >= 0
 R38: 264 x0,1_37 - p0 + p1 <= 301
 R39: - 43 x0,1_43 - p0 + p1 >= 0
 R40: 264 x0,1_43 - p0 + p1 <= 307
 R41: - 61 x0,1_61 - p0 + p1 >= 0
 R42: 264 x0,1_61 - p0 + p1 <= 325
 R43: p0 - p2 <= -1
 R44: - 7 x0,2_7 - p0 + p2 >= 0
 R45: 264 x0,2_7 - p0 + p2 <= 271
 R46: - 15 x0,2_15 - p0 + p2 >= 0
 R47: 264 x0,2_15 - p0 + p2 <= 279
 R48: - 18 x0,2_18 - p0 + p2 >= 0
 R49: 264 x0,2_18 - p0 + p2 <= 282
 R50: - 22 x0,2_22 - p0 + p2 >= 0
 R51: 264 x0,2_22 - p0 + p2 <= 286
 R52: - 26 x0,2_26 - p0 + p2 >= 0
 R53: 264 x0,2_26 - p0 + p2 <= 290
 R54: - 35 x0,2_35 - p0 + p2 >= 0
 R55: 264 x0,2_35 - p0 + p2 <= 299
 R56: - 37 x0,2_37 - p0 + p2 >= 0
 R57: 264 x0,2_37 - p0 + p2 <= 301
 R58: - 43 x0,2_43 - p0 + p2 >= 0
 R59: 264 x0,2_43 - p0 + p2 <= 307
 R60: - 61 x0,2_61 - p0 + p2 >= 0
 R61: 264 x0,2_61 - p0 + p2 <= 325
 R62: p0 - p3 <= -1
 R63: - 7 x0,3_7 - p0 + p3 >= 0
 R64: 264 x0,3_7 - p0 + p3 <= 271
 R65: - 15 x0,3_15 - p0 + p3 >= 0
 R66: 264 x0,3_15 - p0 + p3 <= 279
 R67: - 18 x0,3_18 - p0 + p3 >= 0
 R68: 264 x0,3_18 - p0 + p3 <= 282
 R69: - 22 x0,3_22 - p0 + p3 >= 0
 R70: 264 x0,3_22 - p0 + p3 <= 286
 R71: - 26 x0,3_26 - p0 + p3 >= 0
 R72: 264 x0,3_26 - p0 + p3 <= 290
 R73: - 35 x0,3_35 - p0 + p3 >= 0
 R74: 264 x0,3_35 - p0 + p3 <= 299
 R75: - 37 x0,3_37 - p0 + p3 >= 0
 R76: 264 x0,3_37 - p0 + p3 <= 301
 R77: - 43 x0,3_43 - p0 + p3 >= 0
 R78: 264 x0,3_43 - p0 + p3 <= 307
 R79: - 61 x0,3_61 - p0 + p3 >= 0
 R80: 264 x0,3_61 - p0 + p3 <= 325
 R81: p0 - p4 <= -1
 R82: - 7 x0,4_7 - p0 + p4 >= 0
 R83: 264 x0,4_7 - p0 + p4 <= 271
 R84: - 15 x0,4_15 - p0 + p4 >= 0
 R85: 264 x0,4_15 - p0 + p4 <= 279
 R86: - 18 x0,4_18 - p0 + p4 >= 0
 R87: 264 x0,4_18 - p0 + p4 <= 282
 R88: - 22 x0,4_22 - p0 + p4 >= 0
 R89: 264 x0,4_22 - p0 + p4 <= 286
 R90: - 26 x0,4_26 - p0 + p4 >= 0
 R91: 264 x0,4_26 - p0 + p4 <= 290
 R92: - 35 x0,4_35 - p0 + p4 >= 0
 R93: 264 x0,4_35 - p0 + p4 <= 299
 R94: - 37 x0,4_37 - p0 + p4 >= 0
 R95: 264 x0,4_37 - p0 + p4 <= 301
 R96: - 43 x0,4_43 - p0 + p4 >= 0
 R97: 264 x0,4_43 - p0 + p4 <= 307
 R98: - 61 x0,4_61 - p0 + p4 >= 0
 R99: 264 x0,4_61 - p0 + p4 <= 325
 R100: p0 - p5 <= -1
 R101: - 7 x0,5_7 - p0 + p5 >= 0
 R102: 264 x0,5_7 - p0 + p5 <= 271
 R103: - 15 x0,5_15 - p0 + p5 >= 0
 R104: 264 x0,5_15 - p0 + p5 <= 279
 R105: - 18 x0,5_18 - p0 + p5 >= 0
 R106: 264 x0,5_18 - p0 + p5 <= 282
 R107: - 22 x0,5_22 - p0 + p5 >= 0
 R108: 264 x0,5_22 - p0 + p5 <= 286
 R109: - 26 x0,5_26 - p0 + p5 >= 0
 R110: 264 x0,5_26 - p0 + p5 <= 290
 R111: - 35 x0,5_35 - p0 + p5 >= 0
 R112: 264 x0,5_35 - p0 + p5 <= 299
 R113: - 37 x0,5_37 - p0 + p5 >= 0
 R114: 264 x0,5_37 - p0 + p5 <= 301
 R115: - 43 x0,5_43 - p0 + p5 >= 0
 R116: 264 x0,5_43 - p0 + p5 <= 307
 R117: - 61 x0,5_61 - p0 + p5 >= 0
 R118: 264 x0,5_61 - p0 + p5 <= 325
 R119: p1 - p2 <= -1
 R120: - 7 x1,2_7 - p1 + p2 >= 0
 R121: 264 x1,2_7 - p1 + p2 <= 271
 R122: - 15 x1,2_15 - p1 + p2 >= 0
 R123: 264 x1,2_15 - p1 + p2 <= 279
 R124: - 18 x1,2_18 - p1 + p2 >= 0
 R125: 264 x1,2_18 - p1 + p2 <= 282
 R126: - 22 x1,2_22 - p1 + p2 >= 0
 R127: 264 x1,2_22 - p1 + p2 <= 286
 R128: - 26 x1,2_26 - p1 + p2 >= 0
 R129: 264 x1,2_26 - p1 + p2 <= 290
 R130: - 35 x1,2_35 - p1 + p2 >= 0
 R131: 264 x1,2_35 - p1 + p2 <= 299
 R132: - 37 x1,2_37 - p1 + p2 >= 0
 R133: 264 x1,2_37 - p1 + p2 <= 301
 R134: - 43 x1,2_43 - p1 + p2 >= 0
 R135: 264 x1,2_43 - p1 + p2 <= 307
 R136: - 61 x1,2_61 - p1 + p2 >= 0
 R137: 264 x1,2_61 - p1 + p2 <= 325
 R138: p1 - p3 <= -1
 R139: - 7 x1,3_7 - p1 + p3 >= 0
 R140: 264 x1,3_7 - p1 + p3 <= 271
 R141: - 15 x1,3_15 - p1 + p3 >= 0
 R142: 264 x1,3_15 - p1 + p3 <= 279
 R143: - 18 x1,3_18 - p1 + p3 >= 0
 R144: 264 x1,3_18 - p1 + p3 <= 282
 R145: - 22 x1,3_22 - p1 + p3 >= 0
 R146: 264 x1,3_22 - p1 + p3 <= 286
 R147: - 26 x1,3_26 - p1 + p3 >= 0
 R148: 264 x1,3_26 - p1 + p3 <= 290
 R149: - 35 x1,3_35 - p1 + p3 >= 0
 R150: 264 x1,3_35 - p1 + p3 <= 299
 R151: - 37 x1,3_37 - p1 + p3 >= 0
 R152: 264 x1,3_37 - p1 + p3 <= 301
 R153: - 43 x1,3_43 - p1 + p3 >= 0
 R154: 264 x1,3_43 - p1 + p3 <= 307
 R155: - 61 x1,3_61 - p1 + p3 >= 0
 R156: 264 x1,3_61 - p1 + p3 <= 325
 R157: p1 - p4 <= -1
 R158: - 7 x1,4_7 - p1 + p4 >= 0
 R159: 264 x1,4_7 - p1 + p4 <= 271
 R160: - 15 x1,4_15 - p1 + p4 >= 0
 R161: 264 x1,4_15 - p1 + p4 <= 279
 R162: - 18 x1,4_18 - p1 + p4 >= 0
 R163: 264 x1,4_18 - p1 + p4 <= 282
 R164: - 22 x1,4_22 - p1 + p4 >= 0
 R165: 264 x1,4_22 - p1 + p4 <= 286
 R166: - 26 x1,4_26 - p1 + p4 >= 0
 R167: 264 x1,4_26 - p1 + p4 <= 290
 R168: - 35 x1,4_35 - p1 + p4 >= 0
 R169: 264 x1,4_35 - p1 + p4 <= 299
 R170: - 37 x1,4_37 - p1 + p4 >= 0
 R171: 264 x1,4_37 - p1 + p4 <= 301
 R172: - 43 x1,4_43 - p1 + p4 >= 0
 R173: 264 x1,4_43 - p1 + p4 <= 307
 R174: - 61 x1,4_61 - p1 + p4 >= 0
 R175: 264 x1,4_61 - p1 + p4 <= 325
 R176: p1 - p5 <= -1
 R177: - 7 x1,5_7 - p1 + p5 >= 0
 R178: 264 x1,5_7 - p1 + p5 <= 271
 R179: - 15 x1,5_15 - p1 + p5 >= 0
 R180: 264 x1,5_15 - p1 + p5 <= 279
 R181: - 18 x1,5_18 - p1 + p5 >= 0
 R182: 264 x1,5_18 - p1 + p5 <= 282
 R183: - 22 x1,5_22 - p1 + p5 >= 0
 R184: 264 x1,5_22 - p1 + p5 <= 286
 R185: - 26 x1,5_26 - p1 + p5 >= 0
 R186: 264 x1,5_26 - p1 + p5 <= 290
 R187: - 35 x1,5_35 - p1 + p5 >= 0
 R188: 264 x1,5_35 - p1 + p5 <= 299
 R189: - 37 x1,5_37 - p1 + p5 >= 0
 R190: 264 x1,5_37 - p1 + p5 <= 301
 R191: - 43 x1,5_43 - p1 + p5 >= 0
 R192: 264 x1,5_43 - p1 + p5 <= 307
 R193: - 61 x1,5_61 - p1 + p5 >= 0
 R194: 264 x1,5_61 - p1 + p5 <= 325
 R195: p2 - p3 <= -1
 R196: - 7 x2,3_7 - p2 + p3 >= 0
 R197: 264 x2,3_7 - p2 + p3 <= 271
 R198: - 15 x2,3_15 - p2 + p3 >= 0
 R199: 264 x2,3_15 - p2 + p3 <= 279
 R200: - 18 x2,3_18 - p2 + p3 >= 0
 R201: 264 x2,3_18 - p2 + p3 <= 282
 R202: - 22 x2,3_22 - p2 + p3 >= 0
 R203: 264 x2,3_22 - p2 + p3 <= 286
 R204: - 26 x2,3_26 - p2 + p3 >= 0
 R205: 264 x2,3_26 - p2 + p3 <= 290
 R206: - 35 x2,3_35 - p2 + p3 >= 0
 R207: 264 x2,3_35 - p2 + p3 <= 299
 R208: - 37 x2,3_37 - p2 + p3 >= 0
 R209: 264 x2,3_37 - p2 + p3 <= 301
 R210: - 43 x2,3_43 - p2 + p3 >= 0
 R211: 264 x2,3_43 - p2 + p3 <= 307
 R212: - 61 x2,3_61 - p2 + p3 >= 0
 R213: 264 x2,3_61 - p2 + p3 <= 325
 R214: p2 - p4 <= -1
 R215: - 7 x2,4_7 - p2 + p4 >= 0
 R216: 264 x2,4_7 - p2 + p4 <= 271
 R217: - 15 x2,4_15 - p2 + p4 >= 0
 R218: 264 x2,4_15 - p2 + p4 <= 279
 R219: - 18 x2,4_18 - p2 + p4 >= 0
 R220: 264 x2,4_18 - p2 + p4 <= 282
 R221: - 22 x2,4_22 - p2 + p4 >= 0
 R222: 264 x2,4_22 - p2 + p4 <= 286
 R223: - 26 x2,4_26 - p2 + p4 >= 0
 R224: 264 x2,4_26 - p2 + p4 <= 290
 R225: - 35 x2,4_35 - p2 + p4 >= 0
 R226: 264 x2,4_35 - p2 + p4 <= 299
 R227: - 37 x2,4_37 - p2 + p4 >= 0
 R228: 264 x2,4_37 - p2 + p4 <= 301
 R229: - 43 x2,4_43 - p2 + p4 >= 0
 R230: 264 x2,4_43 - p2 + p4 <= 307
 R231: - 61 x2,4_61 - p2 + p4 >= 0
 R232: 264 x2,4_61 - p2 + p4 <= 325
 R233: p2 - p5 <= -1
 R234: - 7 x2,5_7 - p2 + p5 >= 0
 R235: 264 x2,5_7 - p2 + p5 <= 271
 R236: - 15 x2,5_15 - p2 + p5 >= 0
 R237: 264 x2,5_15 - p2 + p5 <= 279
 R238: - 18 x2,5_18 - p2 + p5 >= 0
 R239: 264 x2,5_18 - p2 + p5 <= 282
 R240: - 22 x2,5_22 - p2 + p5 >= 0
 R241: 264 x2,5_22 - p2 + p5 <= 286
 R242: - 26 x2,5_26 - p2 + p5 >= 0
 R243: 264 x2,5_26 - p2 + p5 <= 290
 R244: - 35 x2,5_35 - p2 + p5 >= 0
 R245: 264 x2,5_35 - p2 + p5 <= 299
 R246: - 37 x2,5_37 - p2 + p5 >= 0
 R247: 264 x2,5_37 - p2 + p5 <= 301
 R248: - 43 x2,5_43 - p2 + p5 >= 0
 R249: 264 x2,5_43 - p2 + p5 <= 307
 R250: - 61 x2,5_61 - p2 + p5 >= 0
 R251: 264 x2,5_61 - p2 + p5 <= 325
 R252: p3 - p4 <= -1
 R253: - 7 x3,4_7 - p3 + p4 >= 0
 R254: 264 x3,4_7 - p3 + p4 <= 271
 R255: - 15 x3,4_15 - p3 + p4 >= 0
 R256: 264 x3,4_15 - p3 + p4 <= 279
 R257: - 18 x3,4_18 - p3 + p4 >= 0
 R258: 264 x3,4_18 - p3 + p4 <= 282
 R259: - 22 x3,4_22 - p3 + p4 >= 0
 R260: 264 x3,4_22 - p3 + p4 <= 286
 R261: - 26 x3,4_26 - p3 + p4 >= 0
 R262: 264 x3,4_26 - p3 + p4 <= 290
 R263: - 35 x3,4_35 - p3 + p4 >= 0
 R264: 264 x3,4_35 - p3 + p4 <= 299
 R265: - 37 x3,4_37 - p3 + p4 >= 0
 R266: 264 x3,4_37 - p3 + p4 <= 301
 R267: - 43 x3,4_43 - p3 + p4 >= 0
 R268: 264 x3,4_43 - p3 + p4 <= 307
 R269: - 61 x3,4_61 - p3 + p4 >= 0
 R270: 264 x3,4_61 - p3 + p4 <= 325
 R271: p3 - p5 <= -1
 R272: - 7 x3,5_7 - p3 + p5 >= 0
 R273: 264 x3,5_7 - p3 + p5 <= 271
 R274: - 15 x3,5_15 - p3 + p5 >= 0
 R275: 264 x3,5_15 - p3 + p5 <= 279
 R276: - 18 x3,5_18 - p3 + p5 >= 0
 R277: 264 x3,5_18 - p3 + p5 <= 282
 R278: - 22 x3,5_22 - p3 + p5 >= 0
 R279: 264 x3,5_22 - p3 + p5 <= 286
 R280: - 26 x3,5_26 - p3 + p5 >= 0
 R281: 264 x3,5_26 - p3 + p5 <= 290
 R282: - 35 x3,5_35 - p3 + p5 >= 0
 R283: 264 x3,5_35 - p3 + p5 <= 299
 R284: - 37 x3,5_37 - p3 + p5 >= 0
 R285: 264 x3,5_37 - p3 + p5 <= 301
 R286: - 43 x3,5_43 - p3 + p5 >= 0
 R287: 264 x3,5_43 - p3 + p5 <= 307
 R288: - 61 x3,5_61 - p3 + p5 >= 0
 R289: 264 x3,5_61 - p3 + p5 <= 325
 R290: p4 - p5 <= -1
 R291: - 7 x4,5_7 - p4 + p5 >= 0
 R292: 264 x4,5_7 - p4 + p5 <= 271
 R293: - 15 x4,5_15 - p4 + p5 >= 0
 R294: 264 x4,5_15 - p4 + p5 <= 279
 R295: - 18 x4,5_18 - p4 + p5 >= 0
 R296: 264 x4,5_18 - p4 + p5 <= 282
 R297: - 22 x4,5_22 - p4 + p5 >= 0
 R298: 264 x4,5_22 - p4 + p5 <= 286
 R299: - 26 x4,5_26 - p4 + p5 >= 0
 R300: 264 x4,5_26 - p4 + p5 <= 290
 R301: - 35 x4,5_35 - p4 + p5 >= 0
 R302: 264 x4,5_35 - p4 + p5 <= 299
 R303: - 37 x4,5_37 - p4 + p5 >= 0
 R304: 264 x4,5_37 - p4 + p5 <= 301
 R305: - 43 x4,5_43 - p4 + p5 >= 0
 R306: 264 x4,5_43 - p4 + p5 <= 307
 R307: - 61 x4,5_61 - p4 + p5 >= 0
 R308: 264 x4,5_61 - p4 + p5 <= 325
Bounds
Binaries
 x0,1_7 x0,1_15 x0,1_18 x0,1_22 x0,1_26 x0,1_35 x0,1_37 x0,1_43 x0,1_61
 x0,2_7 x0,2_15 x0,2_18 x0,2_22 x0,2_26 x0,2_35 x0,2_37 x0,2_43 x0,2_61
 x0,3_7 x0,3_15 x0,3_18 x0,3_22 x0,3_26 x0,3_35 x0,3_37 x0,3_43 x0,3_61
 x0,4_7 x0,4_15 x0,4_18 x0,4_22 x0,4_26 x0,4_35 x0,4_37 x0,4_43 x0,4_61
 x0,5_7 x0,5_15 x0,5_18 x0,5_22 x0,5_26 x0,5_35 x0,5_37 x0,5_43 x0,5_61
 x1,2_7 x1,2_15 x1,2_18 x1,2_22 x1,2_26 x1,2_35 x1,2_37 x1,2_43 x1,2_61
 x1,3_7 x1,3_15 x1,3_18 x1,3_22 x1,3_26 x1,3_35 x1,3_37 x1,3_43 x1,3_61
 x1,4_7 x1,4_15 x1,4_18 x1,4_22 x1,4_26 x1,4_35 x1,4_37 x1,4_43 x1,4_61
 x1,5_7 x1,5_15 x1,5_18 x1,5_22 x1,5_26 x1,5_35 x1,5_37 x1,5_43 x1,5_61
 x2,3_7 x2,3_15 x2,3_18 x2,3_22 x2,3_26 x2,3_35 x2,3_37 x2,3_43 x2,3_61
 x2,4_7 x2,4_15 x2,4_18 x2,4_22 x2,4_26 x2,4_35 x2,4_37 x2,4_43 x2,4_61
 x2,5_7 x2,5_15 x2,5_18 x2,5_22 x2,5_26 x2,5_35 x2,5_37 x2,5_43 x2,5_61
 x3,4_7 x3,4_15 x3,4_18 x3,4_22 x3,4_26 x3,4_35 x3,4_37 x3,4_43 x3,4_61
 x3,5_7 x3,5_15 x3,5_18 x3,5_22 x3,5_26 x3,5_35 x3,5_37 x3,5_43 x3,5_61
 x4,5_7 x4,5_15 x4,5_18 x4,5_22 x4,5_26 x4,5_35 x4,5_37 x4,5_43 x4,5_61
Generals
 p0 p1 p2 p3 p4 p5
End
