logs/miss/feas/miss-06-30-2.sol
# Objective value = 158
x0,1_7 0
x0,1_15 0
x0,1_18 0
x0,1_22 0
x0,1_26 0
x0,1_35 0
x0,1_37 0
x0,1_43 0
x0,1_61 0
x0,2_7 0
x0,2_15 0
x0,2_18 0
x0,2_22 1
x0,2_26 0
x0,2_35 0
x0,2_37 0
x0,2_43 0
x0,2_61 0
x0,3_7 0
x0,3_15 0
x0,3_18 0
x0,3_22 0
x0,3_26 0
x0,3_35 0
x0,3_37 0
x0,3_43 0
x0,3_61 0
x0,4_7 0
x0,4_15 0
x0,4_18 0
x0,4_22 0
x0,4_26 0
x0,4_35 0
x0,4_37 1
x0,4_43 0
x0,4_61 0
x0,5_7 0
x0,5_15 0
x0,5_18 0
x0,5_22 0
x0,5_26 0
x0,5_35 0
x0,5_37 0
x0,5_43 0
x0,5_61 0
x1,2_7 0
x1,2_15 0
x1,2_18 1
x1,2_22 0
x1,2_26 0
x1,2_35 0
x1,2_37 0
x1,2_43 0
x1,2_61 0
x1,3_7 0
x1,3_15 0
x1,3_18 0
x1,3_22 0
x1,3_26 1
x1,3_35 0
x1,3_37 0
x1,3_43 0
x1,3_61 0
x1,4_7 0
x1,4_15 0
x1,4_18 0
x1,4_22 0
x1,4_26 0
x1,4_35 0
x1,4_37 0
x1,4_43 0
x1,4_61 0
x1,5_7 0
x1,5_15 0
x1,5_18 0
x1,5_22 0
x1,5_26 0
x1,5_35 0
x1,5_37 0
x1,5_43 0
x1,5_61 1
x2,3_7 0
x2,3_15 0
x2,3_18 0
x2,3_22 0
x2,3_26 0
x2,3_35 0
x2,3_37 0
x2,3_43 0
x2,3_61 0
x2,4_7 0
x2,4_15 1
x2,4_18 0
x2,4_22 0
x2,4_26 0
x2,4_35 0
x2,4_37 0
x2,4_43 0
x2,4_61 0
x2,5_7 0
x2,5_15 0
x2,5_18 0
x2,5_22 0
x2,5_26 0
x2,5_35 0
x2,5_37 0
x2,5_43 1
x2,5_61 0
x3,4_7 1
x3,4_15 0
x3,4_18 0
x3,4_22 0
x3,4_26 0
x3,4_35 0
x3,4_37 0
x3,4_43 0
x3,4_61 0
x3,5_7 0
x3,5_15 0
x3,5_18 0
x3,5_22 0
x3,5_26 0
x3,5_35 1
x3,5_37 0
x3,5_43 0
x3,5_61 0
x4,5_7 0
x4,5_15 0
x4,5_18 0
x4,5_22 0
x4,5_26 0
x4,5_35 0
x4,5_37 0
x4,5_43 0
x4,5_61 0
p0 0
p1 4
p2 22
p3 30
p4 37
p5 65
